<number of tasks>
7

<cycle time>
8

<task times>
1 1
2 5
3 4
4 3
5 5
6 6
7 5

<precedence relations>
1,2
1,4
2,3
2,5
4,7
5,6

<setup times forward>
2,7:1
3,7:1
4,7:1
5,7:1
6,7:1
7,2:1
7,3:1
7,5:1
7,6:1

<setup times backward>
2,7:1
3,7:1
5,7:1
6,7:1

<end>

<optimal SALBP-1 value>
5


<rand seed>
467321153

<Lower Bounds>
Lm1=4
Lms1=4
Lm2=5
Lm3=4
Lm4=4
Best=5

<Optimal Stations (Iterations: 10)>
5
